400
400
280
280
278
278
277
277
277
277
276
274
274
273
273
272
272
272
272
270
270
269
269
268
268
268
268
267
267
267
266
265
262
262
260
259
258
258
258
258
257
256
256
256
256
255
255
255
255
253
251
251
251
250
248
248
247
245
245
245
244
243
243
242
242
242
241
239
239
238
238
238
238
238
237
236
235
232
231
231
230
229
229
228
228
226
223
222
222
221
219
219
217
217
216
213
212
212
211
211
209
209
208
208
207
206
206
205
203
203
203
202
199
197
197
196
195
195
194
194
194
194
193
193
192
192
192
191
191
190
190
190
190
189
189
189
188
188
187
186
185
185
184
184
184
184
183
182
182
182
180
180
179
179
178
178
177
176
176
174
173
173
172
171
171
171
170
169
168
167
166
164
163
162
162
161
161
161
160
160
160
160
159
159
159
158
158
157
156
156
156
156
155
154
154
154
154
153
153
152
152
151
150
150
148
148
147
147
144
143
143
142
142
140
138
138
138
138
137
137
137
136
136
136
135
134
134
134
133
133
133
132
131
131
130
129
129
128
127
127
127
127
126
126
126
125
125
124
124
124
123
123
123
123
122
121
121
120
120
118
118
117
117
117
116
116
116
116
115
115
114
114
112
112
112
111
110
110
110
110
109
109
108
107
107
106
106
106
105
104
104
103
103
102
102
101
100
100
99
99
98
92
92
92
91
91
91
90
90
89
89
88
88
88
88
87
87
86
86
85
85
83
83
83
82
82
81
81
81
81
80
79
79
79
78
77
76
76
76
76
76
76
75
74
73
73
71
71
70
70
69
69
69
68
68
67
66
65
65
65
63
62
62
62
61
61
61
61
60
59
59
59
58
58
56
56
55
55
55
53
53
53
53
53
52
51
51
51
50
47
47
47
46
46
46
44
44
43
42
42
41
41
